NAME: dataset5.tsp
TYPE: TSP
COMMENT: 5 random locations
DIMENSION: 5
EDGE_WEIGHT_TYPE: EUC_2D
NODE_COORD_SECTION
1 2574.5367250386 1625.9250372788
2 2218.6617982114 430.0219473737
3 4079.8288288590 3768.9071745101
4 1383.2806993428 2140.1329181824
5 3994.2671768688 537.4437129003
EOF
